c
c This is glucose 4.1 --  based on MiniSAT (Many thanks to MiniSAT team)
c
c ========================================[ Problem Statistics ]===========================================
c |                                                                                                       |
c |  Number of variables:           200                                                                   |
c |  Number of clauses:             860                                                                   |
c |  Parse time:                   0.00 s                                                                 |
c |                                                                                                       |
c | Preprocesing is fully done
c |  Eliminated clauses:           0.00 Mb                                                                |
c |  Simplification time:          0.00 s                                                                 |
c |                                                                                                       |
c ========================================[ MAGIC CONSTANTS ]==============================================
c | Constants are supposed to work well together :-)                                                      |
c | however, if you find better choices, please let us known...                                           |
c |-------------------------------------------------------------------------------------------------------|
c | Adapt dynamically the solver after 100000 conflicts (restarts, reduction strategies...)               |
c |-------------------------------------------------------------------------------------------------------|
c |                                |                                |                                     |
c | - Restarts:                    | - Reduce Clause DB:            | - Minimize Asserting:               |
c |   * LBD Queue    :     50      |   * First     :   2000         |    * size <  30                     |
c |   * Trail  Queue :   5000      |   * Inc       :    300         |    * lbd  <   6                     |
c |   * K            :   0.80      |   * Special   :   1000         |                                     |
c |   * R            :   1.40      |   * Protected :  (lbd)< 30     |                                     |
c |                                |                                |                                     |
c ==================================[ Search Statistics (every  10000 conflicts) ]=========================
c |                                                                                                       |
c |          RESTARTS           |          ORIGINAL         |              LEARNT              | Progress |
c |       NB   Blocked  Avg Cfc |    Vars  Clauses Literals |   Red   Learnts    LBD2  Removed |          |
c =========================================================================================================
c |        1         0    10000 |     194      843     2562 |     2     6200       53     3799 |  0.003 % |
c |        3       140     6666 |     194      843     2562 |     3    11203       86     8796 |  0.003 % |
c =========================================================================================================
c restarts              : 3 (9283 conflicts in avg)
c blocked restarts      : 263 (multiple: 3) 
c last block at restart : 3
c nb ReduceDB           : 4
c nb removed Clauses    : 14021
c nb learnts DL2        : 194
c nb learnts size 2     : 61
c nb learnts size 1     : 10
c conflicts             : 27849          (44346 /sec)
c decisions             : 32256          (0.00 % random) (51363 /sec)
c propagations          : 973376         (1549962 /sec)
c nb reduced Clauses    : 19
c CPU time              : 0.628 s

s UNSATISFIABLE
